Route #1: 15 62 52 12 45 48 59 34 2 17 24 23 61 55 22 9 36 28 7 3 13 42 10
Route #2: 21 35 25 8 56
Route #3: 60 11 20 50 19 26 43 4 46 16 54 40 6
Route #4: 37 31 44
Route #5: 47 63 58 1 32 51 18 57 30
Route #6: 
Route #7: 39 14 27 29 33
Route #8: 49 5
Route #9: 53
Route #10: 41 38
cost 1749.4046981567378
